NAME: test1926
TYPE: TSP
DIMENSION: 11
EDGE_WEIGHT_TYPE: EUC_2D
NODE_COORD_SECTION
1 0.7770225225371852 95.18783284988682
2 22.582358961408733 67.73485178253819
3 69.75411320003563 76.22869662271079
4 84.62657495748033 50.33559371226133
5 97.35213105727102 3.7035127738144547
6 40.372338966610066 51.08552911162065
7 32.689015022076276 52.047921264058175
8 83.52862487348838 6.7292768800793485
9 12.47715164986557 6.027542016272768
10 14.3836706385021 77.9946973831915
11 13.254185524248008 1.0577193248429761
EOF
